r = [
0,1,1,6,8,13,10,4,14,16,5,0
];
p = [
0,8,11,9,15,10,16,16,22,22,26,0
];
e = [
0,16,7,3,14,5,4,8,12,3,12,0
];
d = [
0,121,172,156,122,168,156,171,206,224,199,244
];
d_bar = [
0,128,182,164,136,177,170,185,226,244,222,244
];
w = [
0,2.285714286,0.7,0.375,1,0.555555556,0.285714286,0.571428571,0.6,0.15,0.52173913,0
];
